NAME          BLENDNH3
ROWS
 G  TOTN
 G  N
 G  P
 G  K
 G  S
 G  MG
 G  B
 G  ZN
 G  DEN
 E  WT
 N  COST
 N  PRICE
COLUMNS
*234567890123456789012345678901234567890123456789012345678901
    I820000   TOTN          0.822000   COST        175.000000   
    I820000   PRICE       218.750000   SCALE      2000.000000   
    I184600   TOTN          0.180000   N             0.180000   
    I184600   P             0.460000   DEN           0.016043   
    I184600   WT            1.000000   COST        183.000000   
    I184600   PRICE       215.300000   SCALE      2000.000000   
    I115200   TOTN          0.110000   N             0.110000   
    I115200   P             0.520000   DEN           0.015426   
    I115200   WT            1.000000   COST        183.000000   
    I115200   PRICE       215.300000   SCALE      2000.000000   
    I004600   P             0.460000   DEN           0.014344   
    I004600   WT            1.000000   COST        143.000000   
    I004600   PRICE       168.200000   SCALE      2000.000000   
    I460000   TOTN          0.460000   N             0.460000   
    I460000   DEN           0.020889   WT            1.000000   
    I460000   COST        160.000000   PRICE       188.200000   
    I460000   SCALE      2000.000000   
    I210000   TOTN          0.210000   N             0.210000   
    I210000   S             0.240000   DEN           0.020463   
    I210000   WT            1.000000   COST        110.000000   
    I210000   PRICE       129.400000   SCALE      2000.000000   
    I000060   K             0.600000   DEN           0.015450   
    I000060   WT            1.000000   COST         90.000000   
    I000060   PRICE       105.900000   SCALE      2000.000000   
    I000022   K             0.220000   S             0.220000   
    I000022   MG            0.110000   DEN           0.010273   
    I000022   WT            1.000000   COST        110.000000   
    I000022   PRICE       129.400000   SCALE      2000.000000   
    I20S36Z   S             0.200000   ZN            0.360000   
    I20S36Z   DEN           0.013039   WT            1.000000   
    I20S36Z   COST        400.000000   PRICE       470.600000   
    I20S36Z   SCALE      2000.000000   
    I14B000   B             0.143000   DEN           0.021940   
    I14B000   WT            1.000000   COST        420.000000   
    I14B000   PRICE       494.100000   SCALE      2000.000000   
    I000000   DEN           0.011141   WT            1.000000   
    I000000   COST         28.000000   PRICE        32.900000   
    I000000   SCALE      2000.000000   
    PRODUCT   WT           -1.000000   COST          0.000000   
    PRODUCT   PRICE         0.000000   SCALE         1.000000   
*234567890123456789012345678901234567890123456789012345678901
RHS
RANGES
ENDATA
